JulietBench/Juliet_Based_Patch_Bench/linux/CWE-189-Numeric-Errors/CVE_2008_3272_82e68f7ffec3800425f2391c8c86277606860442/solversnd_seq_oss_synth_make_info_Snippet_patch1.smt2
; benchmark generated from python API
(set-info :status unknown)
(declare-fun R () (_ BitVec 32))
(declare-fun rdi () (_ BitVec 64))
(declare-fun rsi () (_ BitVec 64))
(assert
 (let (($x63 (= (_ bv4294967290 32) R)))
 (let ((?x6 ((_ extract 31 0) rdi)))
 (let ((?x9 ((_ zero_extend 32) ?x6)))
 (let ((?x13 (bvlshr ?x9 (_ bv31 64))))
 (let ((?x22 ((_ extract 0 0) ?x13)))
 (let ((?x29 (bvand ?x22 (_ bv1 1))))
 (let (($x28 (and (distinct (_ bv0 1) ?x29) true)))
 (let (($x368 (and $x28 $x63)))
 (let (($x66 (= R ?x6)))
 (let (($x55 (= (_ bv0 1) ?x29)))
 (let ((?x8 ((_ extract 31 0) rsi)))
 (let (($x69 (bvslt ?x6 ?x8)))
 (let (($x367 (and $x69 $x55 $x66)))
 (let (($x363 (bvsge ?x6 ?x8)))
 (let (($x366 (and $x363 $x55 $x63)))
 (let (($x369 (or $x366 $x367 $x368)))
 (let (($x372 (not $x369)))
 (let (($x371 (and (distinct R ?x6) true)))
 (let (($x373 (and $x371 $x372)))
 (let (($x370 (and $x66 $x369)))
 (let (($x374 (or $x370 $x373)))
 (not $x374)))))))))))))))))))))))
(check-sat)
